p cnf 25 63
a 13 23 0
e 1 2 3 4 5 6 7 8 9 10 11 12 14 15 16 17 18 19 20 21 22 24 25 0
-2 3 -4 0
2 -3 -4 0
-2 -3 4 0
2 3 4 0
-1 -4 -5 0
1 4 -5 0
-1 4 5 0
1 -4 5 0
8 -4 -9 0
-8 4 -9 0
8 4 9 0
-8 -4 9 0
-10 -7 0
-10 9 0
7 -9 10 0
-11 -6 0
-11 -10 0
6 10 11 0
11 6 -12 0
-11 -6 -12 0
11 -6 12 0
-11 6 12 0
-13 -10 0
-13 -2 0
10 2 13 0
13 -4 -14 0
-13 4 -14 0
13 4 14 0
-13 -4 14 0
-16 14 0
-16 15 0
-14 -15 16 0
-18 -7 0
-18 -4 0
7 4 18 0
19 -17 0
19 -18 0
17 18 -19 0
-20 13 0
-20 19 0
-13 -19 20 0
-21 16 0
-21 -20 0
-16 20 21 0
-22 -12 0
-22 21 0
12 -21 22 0
17 23 0
-17 23 0
-22 -23 -24 0
22 23 -24 0
-22 23 24 0
22 -23 24 0
25 5 0
25 24 0
-5 -24 -25 0
1 6 19 -25 0
-15 13 -8 16 14 -7 0
18 17 -19 3 -20 -2 0
-7 12 -10 13 17 24 0
22 23 17 8 0
6 -16 -2 3 -24 9 0
25 0
